c --- [ banner ] -------------------------------------------------------------
c 
c CaDiCaL Radically Simplified CDCL SAT Solver
c Copyright (c) 2016-2021 A. Biere, M. Fleury, N. Froleyks
c 
c Version 1.5.2 a5f15211db36c3956764e18194dd5bd63bf3b5e6
c g++ (GCC) 9.3.0 -Wall -Wextra -O3 -DNDEBUG
c Fri Oct 21 01:27:37 EDT 2022 Linux gra-login3 3.10.0-1160.66.1.el7.x86_64 x86_64
c 
c --- [ limit ] --------------------------------------------------------------
c 
c setting conflict limit to 200000 conflicts (due to '200000')
c 
c --- [ parsing input ] ------------------------------------------------------
c 
c reading DIMACS file from '33.cubes6809.adj'
c opening file to read '33.cubes6809.adj'
c found 'p cnf 6160 1595470' header
c parsed 1595470 clauses in 16.75 seconds process time
c closing file '33.cubes6809.adj'
c after reading 1457566742 bytes 1390.0 MB
c 
c --- [ options ] ------------------------------------------------------------
c 
c all options are set to their default value
c 
c --- [ solving ] ------------------------------------------------------------
c 
c time measured in process time since initialization
c 
c  seconds    reductions  redundant   irredundant
c          MB     restarts       trail       variables
c            level   conflicts       glue         remaining
c 
c * 16.75 1378  0 0   0    0    0  0% 0 1595422 2405 39%
c { 18.11 1457  0 0   0    0    0  0% 0 1595422 2405 39%
c i 19.74 1490 737 0   3   47   41 36% 21 1595422 2382 39%
c i 19.81 1491 707 0   4   49   42 36% 21 1595422 2368 38%
c i 19.87 1494 679 0   5   51   43 36% 21 1595422 2367 38%
c i 21.80 1511 260 0   8  158  121 27% 13 1595422 2366 38%
c i 22.16 1513 195 0   8  218  162 26% 12 1595422 2365 38%
c i 22.52 1513 163 0   8  266  199 26% 11 1595422 2364 38%
c i 22.52 1513 162 0   8  267  199 26% 11 1595422 2363 38%
c - 26.27 1465 146 1   8  300  221 26% 11 394282 2363 38%
c i 26.40 1378 146 1   8  302  221 26% 11 394282 2361 38%
c i 26.62 1379 148 1   8  318  235 26% 12 394282 2360 38%
c i 26.66 1379 148 1   9  319  235 26% 12 394282 2359 38%
c i 26.84 1379 145 1  13  335  249 26% 13 394282 2358 38%
c i 26.86 1379 145 1  14  336  249 26% 13 394282 2357 38%
c i 27.10 1379 145 1  21  367  275 26% 17 394282 2353 38%
c i 27.22 1379 145 1  23  373  280 26% 18 394282 2342 38%
c i 27.43 1379 145 1  29  401  304 26% 21 394282 2341 38%
c i 27.93 1379 135 1  41  453  336 26% 22 394282 2318 38%
c i 28.48 1380 123 1  50  523  398 27% 21 394282 2317 38%
c 
c  seconds     reductions  redundant   irredundant
c          MB      restarts       trail       variables
c             level   conflicts       glue         remaining
c 
c i 28.71 1380 117 1  56  570  438 27% 22 394282 2316 38%
c i 28.72 1380 116 1  57  573  440 27% 22 394282 2315 38%
c i 29.60 1381 111 1  76  637  501 27% 22 394282 2313 38%
c i 30.27 1381 112 1  85  708  561 27% 24 394282 2302 37%
c i 30.79 1381 109 1  98  760  601 27% 24 394282 2301 37%
c i 30.81 1381 109 1  98  761  601 27% 24 394282 2300 37%
c i 30.85 1381 105 1  98  805  639 27% 24 394282 2299 37%
c i 30.98 1381 102 1  98  840  667 27% 23 394282 2298 37%
c i 31.08 1381 101 1  98  858  683 27% 23 394282 2297 37%
c } 31.36 1381 91 1  98 1000  793 28% 22 394282 2297 37%
c [ 31.36 1381  0 1  98 1000  793  0% 0 394282 2297 37%
c O 31.39 1381 22 1  98 1003  796 23% 12 394282 2297 37%
c - 32.57 1537 15 2  98 1257  903 31% 13 393424 2297 37%
c i 32.80 1537 17 2  98 1530 1120 31% 14 393424 2296 37%
c i 32.81 1537 17 2  98 1533 1122 31% 14 393424 2295 37%
c i 32.87 1537 19 2  98 1674 1228 31% 16 393424 2294 37%
c i 32.88 1537 19 2  98 1695 1245 31% 16 393424 2293 37%
c i 32.91 1537 19 2  98 1762 1297 31% 16 393424 2292 37%
c i 32.94 1537 20 2  98 1849 1358 31% 17 393424 2291 37%
c i 32.94 1537 20 2  98 1852 1358 31% 17 393424 2290 37%
c 
c  seconds    reductions  redundant   irredundant
c          MB     restarts       trail       variables
c            level   conflicts       glue         remaining
c 
c ] 32.95 1537 21 2  98 1887 1384 31% 18 393424 2290 37%
c 1 32.95 1537 21 2  98 1887 1384 31% 18 393424 2290 37%
c 
c --- [ writing output ] -----------------------------------------------------
c 
c writing simplified CNF to DIMACS file 'simp/33.cubes6809.adj.simp1'
c * 32.95 1537 21 2  98 1887 1384 31% 18 393424 2290 37%
c opening file to write 'simp/33.cubes6809.adj.simp1'
c writing 'p cnf 6160 393405' header
c closing file 'simp/33.cubes6809.adj.simp1'
c after writing 176544701 bytes 168.4 MB
c wrote 393405 clauses in 1.17 seconds process time
c 
c --- [ writing extension ] --------------------------------------------------
c 
c writing extension stack to 'simp/33.cubes6809.adj.ext1'
c opening file to write 'simp/33.cubes6809.adj.ext1'
c closing file 'simp/33.cubes6809.adj.ext1'
c after writing 10756 bytes 0.0 MB
c wrote 726 witnesses in 0.00 seconds process time
c 
c --- [ result ] -------------------------------------------------------------
c 
s SATISFIABLE
c 
c --- [ run-time profiling ] -------------------------------------------------
c 
c process time taken by individual solving procedures
c (percentage relative to process time for solving)
c 
c        16.75  103.45% parse
c        16.19  100.00% search
c        13.25   81.81% unstable
c         1.59    9.80% stable
c         1.36    8.38% lucky
c         0.00    0.00% simplify
c   =================================
c        16.19   47.46% solve
c 
c last line shows process time for solving
c (percentage relative to total process time)
c 
c --- [ statistics ] ---------------------------------------------------------
c 
c chronological:               578        30.63 %  of conflicts
c conflicts:                  1887       116.52    per second
c decisions:                 16816      1038.36    per second
c fixed:                       726        11.79 %  of all variables
c learned:                    1840        97.51 %  per conflict
c learned_lits:             270649       100.00 %  learned literals
c minimized:                     0         0.00 %  learned literals
c shrunken:                 110198        40.72 %  learned literals
c minishrunken:              34429        12.72 %  learned literals
c propagations:             315074         0.02 M  per second
c reduced:                      77         4.08 %  per conflict
c rephased:                      1      1887.00    interval
c restarts:                     98        19.26    interval
c stabilizing:                   1        47.01 %  of conflicts
c subsumed:                    341         0.01 %  of all clauses
c 
c seconds are measured in process time for solving
c 
c --- [ resources ] ----------------------------------------------------------
c 
c total process time since initialization:        34.12    seconds
c total real time since initialization:           34.30    seconds
c maximum resident set size of process:         1537.14    MB
c 
c --- [ shutting down ] ------------------------------------------------------
c 
c exit 10
WARNING! DIMACS header mismatch: wrong number of variables.
============================[ Problem Statistics ]=============================
|                                                                             |
|  Number of variables:          6120                                         |
|  Number of clauses:          393405                                         |
|  Parse time:                   2.49 s                                       |
|  Simplification time:          0.06 s                                       |
|                                                                             |
============================[ Search Statistics ]====================================================
| Conflicts |          ORIGINAL         |          LEARNT          | Num Sols |      SUBGRAPHS      |
|           |    Vars  Clauses Literals |    Limit  Clauses Lit/Cl |          | Canonical Noncanon. |
=====================================================================================================
|       103 |    6029   393408 38670983 |     2000      103     99 |        0 |        16         3 |
|       783 |    6029   393938 38681072 |     2000      783     31 |        0 |       171       533 |
|      2229 |    6029   395159 38703019 |     3600     1229     15 |        0 |       408      1754 |
|      3508 |    6029   396101 38717358 |     3600     2508     15 |        0 |       598      2696 |
|      5332 |    6029   397419 38740284 |     5003     2535     14 |        0 |       926      4014 |
|      6828 |    6028   398156 38751855 |     5003     4030     20 |        0 |      1110      4751 |
|     12499 |    6028   402688 38825986 |     7554     4053     13 |        0 |      2220      9283 |
|     20666 |    6023   409147 38919388 |     8781     8442     19 |        0 |      3353     15742 |
|     35326 |    6020   421245 39116269 |    12402     8128     12 |        0 |      5083     27840 |
|     52305 |    6018   434380 39310156 |    14806    12109     15 |        0 |      7014     40975 |
|     86591 |    6010   462900 39716438 |    19604    13195     10 |        0 |     10074     69495 |
|    152529 |    6010   520189 40478515 |    25608    24137     10 |        0 |     14647    126784 |
|    208968 |    5932   563653 41027003 |    30412    25778     17 |        0 |     18170    170249 |
=====================================================================================================
Number of solutions   : 0
Canonical subgraphs   : 18197          (80 /sec)
          order  3    : 1              (250000 /sec)
          order  4    : 1              (500000 /sec)
          order  5    : 1              (250000 /sec)
          order  6    : 1              (52632 /sec)
          order  7    : 2              (10000 /sec)
          order  8    : 6              (2513 /sec)
          order  9    : 16             (587 /sec)
          order 10    : 70             (201 /sec)
          order 11    : 360            (114 /sec)
          order 12    : 1940           (91 /sec)
          order 13    : 14773          (87 /sec)
          order 14    : 935            (32 /sec)
          order 15    : 91             (32 /sec)
          order 16    : 0              (-nan /sec)
          order 17    : 0              (-nan /sec)
          order 18    : 0              (-nan /sec)
          order 19    : 0              (-nan /sec)
          order 20    : 0              (-nan /sec)
          order 21    : 0              (-nan /sec)
          order 22    : 0              (-nan /sec)
Noncanonical subgraphs: 171105         (561 /sec)
          order  3    : 0              (-nan /sec)
          order  4    : 0              (-nan /sec)
          order  5    : 0              (-nan /sec)
          order  6    : 0              (-nan /sec)
          order  7    : 0              (-nan /sec)
          order  8    : 0              (-nan /sec)
          order  9    : 0              (-nan /sec)
          order 10    : 0              (-nan /sec)
          order 11    : 0              (-nan /sec)
          order 12    : 0              (-nan /sec)
          order 13    : 32453          (3151 /sec)
          order 14    : 132073         (483 /sec)
          order 15    : 6205           (306 /sec)
          order 16    : 374            (377 /sec)
          order 17    : 0              (-nan /sec)
          order 18    : 0              (-nan /sec)
          order 19    : 0              (-nan /sec)
          order 20    : 0              (-nan /sec)
          order 21    : 0              (-nan /sec)
Canonicity checking   : 226.867 s
Noncanonicity checking: 304.874 s
Total canonicity time : 531.741 s
database reductions   : 23
restarts              : 511
conflicts             : 210023         (361 /sec)
decisions             : 426187         (0.00 % random) (733 /sec)
propagations          : 20803296       (35803 /sec)
conflict literals     : 3779162        (60.71 % deleted)
actual reward         : 0.046437
Memory used           : 249.00 MB
CPU time              : 581.05 s

UNSATISFIABLE
